c 
p cnf 10 40
-2 4 -3 0
-10 3 4 0
-2 4 -6 0
8 -2 5 0
-2 -4 7 0
4 2 1 0
-5 8 -9 0
-5 7 -3 0
8 6 4 0
-7 8 6 0
-2 -4 -10 0
-7 -8 -1 0
-5 7 -1 0
-9 8 -4 0
6 -7 -9 0
3 -2 -8 0
-1 -6 4 0
-1 9 7 0
10 -1 -3 0
8 -10 -2 0
-2 -7 -4 0
5 2 6 0
-6 3 -1 0
9 -6 7 0
1 9 -2 0
-9 1 -7 0
-5 8 3 0
-5 -2 7 0
-10 7 -6 0
-2 5 6 0
-4 -5 -10 0
-9 6 2 0
-8 9 -5 0
-1 -3 7 0
9 1 7 0
10 1 -6 0
8 -7 -6 0
-3 -5 -1 0
-9 10 -8 0
-3 10 6 0
